(set-option :print-success false)
(set-logic QF_UF)
(declare-sort x143 0)
(declare-sort x135 0)
(declare-fun x85 (x135 x135) x135)
(declare-fun x61 (x135 x135) x135)
(declare-fun x69 () x135)
(declare-fun x33 () x135)
(declare-fun x68 () x135)
(declare-fun x91 () x135)
(declare-fun x152 () x135)
(assert (let ((x147 (x85 x33 x33)) (x111 (x85 x91 x33)) (x31 (x85 x91 x152)) (x116 (x85 x69 x33)) (x30 (x85 x69 x69)) (x21 (x85 x68 x91)) (x75 (x85 x152 x69)) (x6 (x85 x33 x91)) (x101 (x85 x152 x91)) (x128 (x85 x68 x69)) (x43 (x85 x152 x68)) (x125 (x85 x33 x68)) (x57 (x85 x68 x152)) (x36 (x85 x152 x152)) (x140 (x85 x68 x68)) (x4 (x85 x91 x68)) (x104 (x85 x69 x152)) (x24 (x85 x33 x152)) (x155 (x85 x91 x91)) (x15 (x85 x152 x33)) (x77 (x85 x69 x91)) (x10 (x85 x33 x69)) (x99 (x85 x68 x33)) (x59 (x85 x69 x68)) (x8 (x85 x91 x69))) (let ((x109 (not (= x69 x75))) (x137 (not (= x69 x6))) (x115 (not (= x128 x68))) (x37 (not (= x33 x24))) (x98 (not (= x10 x33))) (x159 (not (= x152 x57))) (x39 (not (= x10 x69))) (x5 (not (= x69 x21))) (x9 (not (= x31 x69))) (x110 (not (= x77 x91))) (x41 (not (= x147 x33))) (x145 (not (= x152 x140))) (x35 (not (= x57 x91))) (x18 (not (= x33 x59))) (x151 (not (= x57 x69))) (x76 (not (= x101 x33))) (x17 (not (= x33 x8))) (x78 (not (= x43 x69))) (x45 (not (= x24 x152))) (x127 (not (= x33 x30))) (x134 (not (= x152 x59))) (x90 (not (= x152 x31))) (x131 (not (= x104 x91))) (x154 (not (= x147 x91))) (x63 (not (= x21 x68))) (x50 (not (= x111 x69))) (x129 (not (= x33 x155))) (x26 (not (= x75 x152))) (x3 (not (= x36 x152))) (x28 (not (= x31 x91))) (x141 (not (= x30 x68))) (x66 (not (= x24 x69))) (x103 (not (= x30 x69))) (x1 (not (= x69 x128))) (x94 (not (= x111 x152))) (x120 (not (= x152 x125))) (x157 (not (= x152 x43))) (x72 (not (= x33 x31))) (x48 (not (= x30 x152))) (x130 (not (= x147 x68))) (x19 (not (= x10 x152))) (x64 (not (= x30 x91))) (x113 (not (= x69 x77))) (x114 (not (= x77 x152))) (x22 (not (= x91 x99))) (x97 (not (= x8 x68))) (x58 (not (= x36 x69))) (x88 (not (= x91 x125))) (x102 (not (= x99 x33))) (x87 (not (= x140 x33))) (x70 (not (= x152 x116))) (x105 (not (= x4 x91))) (x83 (not (= x59 x68))) (x142 (not (= x24 x91))) (x34 (not (= x69 x140))) (x40 (not (= x4 x152))) (x23 (not (= x104 x68))) (x86 (not (= x152 x155))) (x93 (not (= x111 x33))) (x56 (not (= x152 x15))) (x80 (not (= x33 x128))) (x52 (not (= x33 x6))) (x92 (not (= x91 x15))) (x136 (not (= x68 x10))) (x119 (not (= x152 x128))) (x11 (not (= x15 x33))) (x158 (not (= x69 x99))) (x84 (not (= x77 x68))) (x25 (not (= x69 x155))) (x112 (not (= x152 x147))) (x148 (not (= x68 x125))) (x71 (not (= x91 x36))) (x108 (not (= x68 x24))) (x123 (not (= x15 x68))) (x16 (not (= x111 x68))) (x74 (not (= x68 x140))) (x13 (not (= x68 x116))) (x79 (not (= x91 x140))) (x122 (not (= x104 x69))) (x12 (not (= x91 x21))) (x149 (not (= x8 x91))) (x7 (not (= x91 x101))) (x96 (not (= x99 x68))) (x73 (not (= x21 x152))) (x55 (not (= x68 x75))) (x46 (not (= x128 x91))) (x144 (not (= x33 x43))) (x27 (not (= x6 x91))) (x82 (not (= x43 x68))) (x62 (not (= x33 x36))) (x49 (not (= x91 x116))) (x146 (not (= x33 x125))) (x132 (not (= x69 x59))) (x95 (not (= x104 x152))) (x29 (not (= x152 x99))) (x47 (not (= x104 x33))) (x54 (not (= x77 x33))) (x118 (not (= x155 x91))) (x156 (not (= x68 x57))) (x133 (not (= x101 x69))) (x51 (not (= x21 x33))) (x2 (not (= x152 x101))) (x153 (not (= x75 x33))) (x53 (not (= x152 x8))) (x81 (not (= x31 x68))) (x32 (not (= x59 x91))) (x42 (not (= x69 x8))) (x100 (not (= x69 x4))) (x14 (not (= x91 x111))) (x107 (not (= x68 x36))) (x138 (not (= x33 x57))) (x117 (not (= x6 x68))) (x124 (not (= x69 x125))) (x150 (not (= x33 x116))) (x65 (not (= x6 x152))) (x139 (not (= x69 x116))) (x126 (not (= x43 x91))) (x60 (not (= x33 x4))) (x44 (not (= x69 x15))) (x67 (not (= x69 x147))) (x89 (not (= x68 x155))) (x121 (not (= x4 x68))) (x20 (not (= x91 x75))) (x106 (not (= x101 x68))) (x38 (not (= x91 x10)))) (or (and (and (and (or x63 x121) (and (or x156 x82) (and (or x115 x83) (or x148 x96)))) (or x74 x74)) (and (and (and (and (or x106 x81) (and (and (or x55 x23) (or x123 x108)) (or x107 x107))) (or x156 x82)) (and (and (or x115 x83) (and (and (and (or x141 x141) (or x13 x136)) (or x55 x23)) (or x97 x84))) (and (or x148 x96) (and (or x117 x16) (and (and (or x136 x13) (or x130 x130)) (or x108 x123)))))) (and (or x63 x121) (and (or x89 x89) (and (and (or x117 x16) (or x84 x97)) (or x81 x106)))))) (or (or (or (and (and (and (or x100 x5) (and (and (or x9 x133) (and (or x50 x137) (or x113 x42))) (or x25 x25))) (and (and (and (or x132 x1) (and (and (and (or x103 x103) (or x39 x139)) (or x109 x122)) (or x42 x113))) (and (and (and (or x44 x66) (and (or x67 x67) (or x139 x39))) (or x137 x50)) (or x158 x124))) (and (and (or x9 x133) (and (and (or x44 x66) (or x109 x122)) (or x58 x58))) (or x78 x151)))) (and (or x34 x34) (and (and (or x78 x151) (and (or x1 x132) (or x158 x124))) (or x100 x5)))) (and (and (and (and (and (and (or x17 x54) (and (and (or x127 x127) (or x98 x150)) (or x47 x153))) (or x18 x80)) (and (and (and (and (or x41 x41) (or x150 x98)) (or x11 x37)) (or x52 x93)) (or x102 x146))) (and (or x138 x144) (and (and (or x62 x62) (and (or x153 x47) (or x11 x37))) (or x72 x76)))) (and (or x60 x51) (and (and (or x72 x76) (and (or x52 x93) (or x17 x54))) (or x129 x129)))) (and (or x87 x87) (and (and (or x138 x144) (and (or x102 x146) (or x80 x18))) (or x60 x51))))) (and (and (and (or x73 x40) (and (or x157 x159) (and (or x134 x119) (or x29 x120)))) (or x145 x145)) (and (and (and (or x157 x159) (and (and (and (or x45 x56) (or x26 x95)) (or x3 x3)) (or x2 x90))) (and (and (or x119 x134) (and (and (or x95 x26) (and (or x19 x70) (or x48 x48))) (or x114 x53))) (and (or x120 x29) (and (or x65 x94) (and (and (or x112 x112) (or x19 x70)) (or x45 x56)))))) (and (or x73 x40) (and (and (and (or x114 x53) (or x65 x94)) (or x90 x2)) (or x86 x86)))))) (and (and (and (or x12 x105) (and (or x118 x118) (and (or x7 x28) (and (or x27 x14) (or x110 x149))))) (and (and (and (and (or x14 x27) (and (and (or x38 x49) (or x154 x154)) (or x142 x92))) (or x88 x22)) (and (and (or x149 x110) (and (and (or x49 x38) (or x64 x64)) (or x20 x131))) (or x46 x32))) (and (or x35 x126) (and (or x28 x7) (and (or x71 x71) (and (or x131 x20) (or x92 x142))))))) (and (and (and (or x126 x35) (and (or x88 x22) (or x32 x46))) (or x105 x12)) (or x79 x79))))))))
(assert (let ((x66 (x85 x33 x152)) (x39 (x85 x69 x33)) (x151 (x85 x68 x69)) (x124 (x85 x91 x68)) (x1 (x85 x91 x33)) (x113 (x85 x152 x69)) (x109 (x85 x69 x68)) (x103 (x85 x69 x69)) (x137 (x85 x152 x152)) (x132 (x85 x91 x152)) (x158 (x85 x91 x91)) (x42 (x85 x33 x68)) (x58 (x85 x33 x91)) (x67 (x85 x69 x91)) (x34 (x85 x68 x68)) (x50 (x85 x152 x33)) (x139 (x85 x69 x152)) (x44 (x85 x33 x33)) (x25 (x85 x91 x69)) (x122 (x85 x33 x69)) (x133 (x85 x152 x68)) (x5 (x85 x68 x152)) (x100 (x85 x68 x91)) (x78 (x85 x68 x33)) (x9 (x85 x152 x91))) (or (or (or (or (and (not (= x109 (x85 x68 x109))) (and (and (and (not (= (x85 x69 x103) x103)) (not (= x39 (x85 x33 x39)))) (not (= (x85 x152 x139) x139))) (not (= (x85 x91 x67) x67)))) (and (not (= x42 (x85 x68 x42))) (and (not (= x58 (x85 x91 x58))) (and (and (not (= (x85 x33 x44) x44)) (not (= x122 (x85 x69 x122)))) (not (= (x85 x152 x66) x66)))))) (and (not (= (x85 x68 x133) x133)) (and (and (not (= (x85 x152 x137) x137)) (and (not (= x50 (x85 x33 x50))) (not (= x113 (x85 x69 x113))))) (not (= x9 (x85 x91 x9)))))) (and (not (= (x85 x68 x124) x124)) (and (and (not (= (x85 x152 x132) x132)) (and (not (= (x85 x69 x25) x25)) (not (= x1 (x85 x33 x1))))) (not (= x158 (x85 x91 x158)))))) (and (not (= x34 (x85 x68 x34))) (and (not (= (x85 x91 x100) x100)) (and (and (not (= x78 (x85 x33 x78))) (not (= x151 (x85 x69 x151)))) (not (= x5 (x85 x152 x5)))))))))
(assert (let ((x42 (x85 x68 x33)) (x58 (x85 x91 x33)) (x139 (x85 x152 x69)) (x132 (x85 x152 x91)) (x25 (x85 x69 x91)) (x124 (x85 x68 x91)) (x9 (x85 x91 x152)) (x78 (x85 x33 x68)) (x151 (x85 x69 x68)) (x66 (x85 x152 x33)) (x158 (x85 x91 x91)) (x39 (x85 x33 x69)) (x44 (x85 x33 x33)) (x1 (x85 x33 x91)) (x133 (x85 x68 x152)) (x103 (x85 x69 x69)) (x34 (x85 x68 x68)) (x137 (x85 x152 x152)) (x100 (x85 x91 x68)) (x109 (x85 x68 x69)) (x122 (x85 x69 x33)) (x67 (x85 x91 x69)) (x113 (x85 x69 x152)) (x50 (x85 x33 x152)) (x5 (x85 x152 x68))) (and (and (and (and (and (not (= x124 x133)) (and (and (and (and (not (= x109 x34)) (and (and (not (= x109 x42)) (not (= x133 x109))) (not (= x124 x109)))) (not (= x133 x42))) (not (= x42 x124))) (not (= x34 x42)))) (not (= x133 x34))) (not (= x124 x34))) (and (and (and (and (not (= x151 x25)) (and (and (not (= x113 x25)) (and (and (not (= x122 x25)) (and (not (= x122 x113)) (and (not (= x103 x151)) (and (and (not (= x103 x122)) (not (= x113 x103))) (not (= x103 x25)))))) (not (= x122 x151)))) (not (= x151 x113)))) (and (not (= x1 x78)) (and (and (and (not (= x44 x78)) (and (not (= x1 x44)) (and (not (= x44 x50)) (and (and (not (= x1 x39)) (and (not (= x50 x39)) (not (= x44 x39)))) (not (= x39 x78)))))) (not (= x1 x50))) (not (= x50 x78))))) (and (not (= x132 x5)) (and (not (= x137 x5)) (and (and (not (= x66 x5)) (and (not (= x132 x66)) (and (not (= x137 x66)) (and (not (= x139 x5)) (and (not (= x132 x139)) (and (not (= x139 x66)) (not (= x137 x139)))))))) (not (= x137 x132)))))) (and (not (= x158 x100)) (and (and (not (= x158 x9)) (and (and (not (= x58 x158)) (and (and (and (and (not (= x67 x58)) (not (= x9 x67))) (not (= x158 x67))) (not (= x67 x100))) (not (= x58 x9)))) (not (= x100 x58)))) (not (= x9 x100)))))) (and (and (and (not (= x158 x124)) (and (and (not (= x132 x158)) (and (and (not (= x158 x1)) (and (not (= x132 x1)) (and (not (= x124 x25)) (and (and (not (= x25 x132)) (not (= x1 x25))) (not (= x158 x25)))))) (not (= x124 x1)))) (not (= x124 x132)))) (and (and (and (and (not (= x139 x109)) (and (not (= x67 x139)) (and (not (= x109 x39)) (and (not (= x67 x39)) (and (not (= x139 x39)) (and (not (= x103 x109)) (and (not (= x67 x103)) (and (not (= x103 x39)) (not (= x139 x103)))))))))) (not (= x109 x67))) (and (and (and (and (not (= x42 x44)) (and (not (= x44 x58)) (and (not (= x44 x66)) (and (and (not (= x58 x122)) (and (not (= x122 x66)) (not (= x44 x122)))) (not (= x122 x42)))))) (not (= x58 x66))) (not (= x66 x42))) (not (= x42 x58)))) (and (and (not (= x133 x137)) (and (and (and (and (not (= x50 x137)) (and (and (not (= x113 x9)) (and (not (= x137 x113)) (not (= x113 x50)))) (not (= x113 x133)))) (not (= x9 x50))) (not (= x50 x133))) (not (= x9 x137)))) (not (= x133 x9))))) (and (and (and (and (and (and (and (and (not (= x100 x151)) (and (not (= x5 x151)) (not (= x78 x151)))) (not (= x34 x151))) (not (= x78 x5))) (not (= x100 x78))) (not (= x34 x78))) (not (= x5 x100))) (not (= x34 x5))) (not (= x34 x100)))))))
(assert (and (or (= x68 (x85 x68 (x85 x68 x68))) (or (or (= (x85 x68 (x85 x68 x152)) x152) (or (= x33 (x85 x68 (x85 x68 x33))) (= x69 (x85 x68 (x85 x68 x69))))) (= (x85 x68 (x85 x68 x91)) x91))) (and (and (or (= x68 (x85 x152 (x85 x152 x68))) (or (or (= x152 (x85 x152 (x85 x152 x152))) (or (= x69 (x85 x152 (x85 x152 x69))) (= x33 (x85 x152 (x85 x152 x33))))) (= (x85 x152 (x85 x152 x91)) x91))) (and (or (= x68 (x85 x33 (x85 x33 x68))) (or (or (= (x85 x33 (x85 x33 x152)) x152) (or (= x33 (x85 x33 (x85 x33 x33))) (= (x85 x33 (x85 x33 x69)) x69))) (= (x85 x33 (x85 x33 x91)) x91))) (or (= (x85 x69 (x85 x69 x68)) x68) (or (or (or (= x69 (x85 x69 (x85 x69 x69))) (= x33 (x85 x69 (x85 x69 x33)))) (= x152 (x85 x69 (x85 x69 x152)))) (= (x85 x69 (x85 x69 x91)) x91))))) (or (= x68 (x85 x91 (x85 x91 x68))) (or (or (= (x85 x91 (x85 x91 x152)) x152) (or (= x69 (x85 x91 (x85 x91 x69))) (= x33 (x85 x91 (x85 x91 x33))))) (= x91 (x85 x91 (x85 x91 x91))))))))
(assert (or (and (and (and (and (not (= x69 (x85 x68 x69))) (not (= x33 (x85 x68 x33)))) (not (= (x85 x68 x152) x152))) (not (= x91 (x85 x68 x91)))) (not (= x68 (x85 x68 x68)))) (or (or (or (and (not (= x68 (x85 x69 x68))) (and (and (and (not (= x69 (x85 x69 x69))) (not (= x33 (x85 x69 x33)))) (not (= x152 (x85 x69 x152)))) (not (= x91 (x85 x69 x91))))) (and (and (not (= x91 (x85 x33 x91))) (and (not (= (x85 x33 x152) x152)) (and (not (= x69 (x85 x33 x69))) (not (= x33 (x85 x33 x33)))))) (not (= (x85 x33 x68) x68)))) (and (not (= (x85 x152 x68) x68)) (and (not (= x91 (x85 x152 x91))) (and (not (= x152 (x85 x152 x152))) (and (not (= x69 (x85 x152 x69))) (not (= (x85 x152 x33) x33))))))) (and (and (and (and (not (= (x85 x91 x69) x69)) (not (= x33 (x85 x91 x33)))) (not (= (x85 x91 x152) x152))) (not (= x91 (x85 x91 x91)))) (not (= x68 (x85 x91 x68)))))))
(assert (not (and (= (x85 x68 x68) x91) (and (and (= (x85 x68 x152) x152) (and (and (= x68 (x85 x68 x69)) (and (and (= x33 (x85 x91 x91)) (and (= x68 (x85 x91 x152)) (and (and (and (and (= (x85 x152 x91) x91) (and (= x33 (x85 x152 x152)) (and (and (and (= x33 (x85 x33 x68)) (and (= x152 (x85 x33 x91)) (and (= x69 (x85 x33 x152)) (and (= x68 (x85 x33 x33)) (and (= x91 (x85 x33 x69)) (and (= (x85 x69 x68) x152) (and (= x68 (x85 x69 x91)) (and (= (x85 x69 x152) x91) (and (= (x85 x69 x33) x69) (= (x85 x69 x69) x33)))))))))) (= x69 (x85 x152 x69))) (= (x85 x152 x33) x152)))) (= x68 (x85 x152 x68))) (= (x85 x91 x69) x152)) (= (x85 x91 x33) x91)))) (= x69 (x85 x91 x68)))) (= (x85 x68 x33) x33))) (= (x85 x68 x91) x69)))))
(assert (let ((x67 (x85 x91 x91)) (x109 (x85 x68 x68)) (x139 (x85 x152 x152)) (x39 (x85 x33 x33)) (x103 (x85 x69 x69))) (or (and (not (= x68 x109)) (and (not (= x67 x68)) (and (and (not (= x103 x68)) (not (= x68 x39))) (not (= x68 x139))))) (or (or (and (not (= x152 x109)) (and (and (and (not (= x152 x103)) (not (= x39 x152))) (not (= x152 x139))) (not (= x152 x67)))) (or (and (not (= x109 x33)) (and (and (not (= x139 x33)) (and (not (= x39 x33)) (not (= x33 x103)))) (not (= x67 x33)))) (and (and (and (not (= x69 x139)) (and (not (= x69 x103)) (not (= x39 x69)))) (not (= x67 x69))) (not (= x69 x109))))) (and (not (= x91 x109)) (and (not (= x67 x91)) (and (not (= x91 x139)) (and (not (= x103 x91)) (not (= x91 x39))))))))))
(assert (let ((x78 (x85 x33 x68)) (x127 (x85 x68 x33)) (x45 (x85 x68 x91)) (x32 (x85 x68 x68)) (x109 (x85 x69 x91)) (x122 (x85 x69 x68)) (x125 (x85 x152 x152)) (x58 (x85 x152 x69)) (x139 (x85 x69 x33)) (x124 (x85 x33 x152)) (x39 (x85 x69 x69)) (x151 (x85 x33 x91)) (x67 (x85 x69 x152)) (x42 (x85 x91 x69)) (x19 (x85 x91 x91)) (x70 (x85 x91 x68)) (x36 (x85 x91 x152)) (x62 (x85 x68 x152)) (x153 (x85 x152 x68)) (x66 (x85 x33 x69)) (x113 (x85 x68 x69)) (x30 (x85 x91 x33)) (x158 (x85 x33 x33)) (x99 (x85 x152 x91)) (x34 (x85 x152 x33))) (let ((x8 (= x91 x158)) (x49 (= x68 x99)) (x76 (= x91 x125)) (x128 (= x68 x139)) (x25 (= x139 x69)) (x115 (= x113 x68)) (x130 (= x78 x152)) (x24 (= x69 x124)) (x101 (= x58 x152)) (x102 (= x30 x69)) (x117 (= x78 x91)) (x12 (= x33 x32)) (x14 (= x69 x70)) (x55 (= x153 x152)) (x140 (= x42 x33)) (x72 (= x91 x124)) (x159 (= x91 x99)) (x97 (= x91 x62)) (x154 (= x68 x19)) (x23 (= x152 x70)) (x56 (= x33 x19)) (x37 (= x33 x125)) (x38 (= x68 x151)) (x81 (= x91 x153)) (x11 (= x124 x33)) (x95 (= x99 x33)) (x46 (= x33 x45)) (x88 (= x33 x78)) (x65 (= x151 x152)) (x100 (= x158 x33)) (x138 (= x109 x69)) (x110 (= x153 x69)) (x104 (= x152 x158)) (x120 (= x151 x91)) (x119 (= x30 x91)) (x16 (= x122 x91)) (x129 (= x34 x68)) (x146 (= x69 x36)) (x41 (= x67 x69)) (x118 (= x33 x62)) (x51 (= x99 x69)) (x126 (= x70 x33)) (x103 (= x69 x39)) (x7 (= x127 x33)) (x121 (= x70 x68)) (x22 (= x122 x33)) (x27 (= x69 x32)) (x150 (= x69 x58)) (x93 (= x91 x34)) (x83 (= x127 x68)) (x21 (= x124 x68)) (x35 (= x33 x153)) (x43 (= x152 x67)) (x80 (= x125 x68)) (x114 (= x152 x36)) (x2 (= x19 x152)) (x157 (= x91 x19)) (x133 (= x66 x69)) (x29 (= x91 x109)) (x90 (= x99 x152)) (x1 (= x158 x69)) (x92 (= x62 x69)) (x57 (= x124 x152)) (x28 (= x113 x33)) (x147 (= x34 x69)) (x10 (= x139 x152)) (x60 (= x69 x19)) (x53 (= x30 x152)) (x50 (= x39 x152)) (x82 (= x78 x68)) (x4 (= x67 x68)) (x89 (= x91 x32)) (x137 (= x91 x39)) (x94 (= x109 x152)) (x20 (= x69 x113)) (x86 (= x42 x91)) (x79 (= x152 x127)) (x142 (= x45 x69)) (x5 (= x33 x139)) (x144 (= x69 x151)) (x87 (= x30 x33)) (x134 (= x91 x36)) (x116 (= x152 x66)) (x3 (= x152 x42)) (x107 (= x127 x91)) (x145 (= x36 x68)) (x9 (= x68 x39)) (x131 (= x69 x127)) (x73 (= x68 x42)) (x136 (= x45 x152)) (x63 (= x68 x153)) (x108 (= x91 x113)) (x111 (= x33 x34)) (x13 (= x152 x122)) (x6 (= x58 x33)) (x15 (= x125 x69)) (x156 (= x122 x68)) (x47 (= x67 x33)) (x54 (= x58 x91)) (x44 (= x33 x39)) (x149 (= x78 x69)) (x52 (= x67 x91)) (x59 (= x68 x66)) (x71 (= x69 x122)) (x17 (= x125 x152)) (x40 (= x68 x30)) (x48 (= x33 x36)) (x112 (= x109 x33)) (x84 (= x45 x91)) (x74 (= x68 x32)) (x148 (= x68 x45)) (x123 (= x32 x152)) (x75 (= x91 x66)) (x105 (= x152 x113)) (x141 (= x152 x62)) (x106 (= x91 x70)) (x132 (= x33 x66)) (x31 (= x34 x152)) (x98 (= x158 x68)) (x96 (= x68 x62)) (x155 (= x58 x68)) (x18 (= x69 x42)) (x64 (= x109 x68)) (x26 (= x151 x33)) (x77 (= x139 x91))) (and (and (and (and (and (and (and (or (or (or x54 (or x75 x137)) x86) x108) (or (or (or x52 (or x77 x137)) x29) x16)) (and (and (or (or x94 (or (or x10 x50) x43)) x13) (or (or x3 (or (or x50 x116) x101)) x105)) (and (and (or x22 (or x112 (or (or x44 x5) x47))) (or (or (or (or x44 x132) x6) x140) x28)) (and (or (or x18 (or x150 (or x133 x103))) x20) (or (or x138 (or (or x25 x103) x41)) x71))))) (and (or (or (or x4 (or x9 x128)) x64) x156) (or (or x73 (or (or x59 x9) x155)) x115))) (and (and (or (or x38 (or x21 (or x98 x59))) x82) (or (or (or (or x128 x98) x129) x40) x83)) (and (and (and (or (or x53 (or (or x104 x10) x31)) x79) (or (or (or (or x104 x116) x57) x65) x130)) (and (and (or (or (or x147 (or x25 x1)) x102) x131) (or (or (or x24 (or x133 x1)) x144) x149)) (and (or x88 (or x26 (or x11 (or x100 x132)))) (or x7 (or (or x111 (or x100 x5)) x87))))) (and (or x117 (or x120 (or (or x75 x8) x72))) (or x107 (or (or (or x8 x77) x93) x119)))))) (and (and (or (or (or x80 (or x21 x4)) x145) x96) (or (or x49 (or (or x129 x155) x80)) x63)) (and (and (and (and (or (or x48 (or (or x47 x11) x37)) x118) (or (or (or x37 (or x6 x111)) x95) x35)) (and (or x92 (or (or (or x41 x24) x15) x146)) (or (or (or (or x147 x150) x15) x51) x110))) (and (or x55 (or (or (or x31 x101) x17) x90)) (or (or x114 (or (or x43 x57) x17)) x141))) (and (or (or (or (or x52 x72) x76) x134) x97) (or (or (or x76 (or x54 x93)) x159) x81))))) (and (and (or (or (or x145 (or x40 x73)) x154) x121) (or x148 (or x154 (or (or x64 x38) x49)))) (and (and (and (or x23 (or x2 (or x114 (or x53 x3)))) (or (or (or x90 (or x94 x65)) x2) x136)) (and (and (or x126 (or x56 (or (or x140 x87) x48))) (or (or x56 (or x95 (or x26 x112))) x46)) (and (or x14 (or x60 (or x146 (or x18 x102)))) (or x142 (or (or x51 (or x138 x144)) x60))))) (and (or (or (or x134 (or x119 x86)) x157) x106) (or x84 (or x157 (or x159 (or x29 x120)))))))) (and (and (or x74 (or (or (or x82 x156) x63) x121)) (or x74 (or x148 (or (or x115 x83) x96)))) (and (and (or (or (or (or x108 x107) x97) x84) x89) (or x89 (or x106 (or (or x16 x117) x81)))) (and (and (or x123 (or (or (or x130 x13) x55) x23)) (or (or (or (or x79 x105) x141) x136) x123)) (and (and (or x27 (or (or (or x71 x149) x110) x14)) (or x27 (or (or x92 (or x131 x20)) x142))) (and (or (or (or (or x88 x22) x35) x126) x12) (or (or x46 (or x118 (or x28 x7))) x12))))))))))
(assert (let ((x66 (x85 x33 x152)) (x44 (x85 x152 x33)) (x34 (= x68 (x85 x68 x68))) (x113 (x85 x69 x91)) (x158 (x85 x68 x33)) (x124 (x85 x33 x68)) (x67 (= x33 (x85 x33 x33))) (x122 (x85 x69 x152)) (x137 (x85 x33 x91)) (x103 (= x69 (x85 x69 x69))) (x133 (x85 x152 x91)) (x151 (x85 x68 x152)) (x50 (x85 x91 x33)) (x58 (= x152 (x85 x152 x152))) (x1 (x85 x68 x69)) (x139 (x85 x69 x33)) (x9 (x85 x91 x152)) (x78 (x85 x152 x68)) (x5 (x85 x68 x91)) (x132 (x85 x69 x68)) (x109 (x85 x152 x69)) (x100 (x85 x91 x68)) (x42 (x85 x91 x69)) (x39 (x85 x33 x69)) (x25 (= (x85 x91 x91) x91))) (or (or (or (or (and (= x151 x68) (= x78 x68)) (or (and (= x68 x1) (= x132 x68)) (and (= x158 x68) (= x68 x124)))) (and (= x100 x68) (= x68 x5))) (and x34 x34)) (or (or (and (= x91 x5) (= x100 x91)) (or (or (or (and (= x50 x91) (= x91 x137)) (and (= x91 x113) (= x91 x42))) (and (= x133 x91) (= x91 x9))) (and x25 x25))) (or (or (and (= x78 x152) (= x152 x151)) (or (or (or (and (= x152 x109) (= x152 x122)) (and (= x152 x44) (= x152 x66))) (and x58 x58)) (and (= x152 x133) (= x152 x9)))) (or (or (or (or (or (and (= x69 x139) (= x39 x69)) (and x103 x103)) (and (= x122 x69) (= x109 x69))) (and (= x42 x69) (= x113 x69))) (and (= x69 x132) (= x69 x1))) (or (and (= x158 x33) (= x33 x124)) (or (and (= x33 x50) (= x33 x137)) (or (or (and x67 x67) (and (= x33 x139) (= x33 x39))) (and (= x33 x44) (= x33 x66)))))))))))
(assert (not (and (and (and (and (and (and (and (and (= (x85 x91 x152) x152) (and (and (and (and (and (= (x85 x152 x152) x33) (and (= x152 (x85 x152 x33)) (and (= (x85 x152 x69) x68) (and (and (= x152 (x85 x33 x91)) (and (= (x85 x33 x152) x69) (and (and (and (= (x85 x69 x68) x152) (and (and (and (= (x85 x69 x33) x69) (= (x85 x69 x69) x33)) (= x91 (x85 x69 x152))) (= (x85 x69 x91) x68))) (= (x85 x33 x69) x91)) (= (x85 x33 x33) x68)))) (= (x85 x33 x68) x33))))) (= x69 (x85 x152 x91))) (= x91 (x85 x152 x68))) (= (x85 x91 x69) x69)) (= (x85 x91 x33) x91))) (= (x85 x91 x91) x33)) (= x68 (x85 x91 x68))) (= x152 (x85 x68 x69))) (= (x85 x68 x33) x33)) (= (x85 x68 x152) x68)) (= (x85 x68 x91) x91)) (= x69 (x85 x68 x68)))))
(assert (and (and (and (not (= x152 (x85 x152 x152))) (and (not (= (x85 x69 x69) x69)) (not (= x33 (x85 x33 x33))))) (not (= (x85 x91 x91) x91))) (not (= x68 (x85 x68 x68)))))
(assert (let ((x137 (x85 x152 x152)) (x113 (x85 x69 x152)) (x133 (x85 x68 x152)) (x122 (x85 x69 x33)) (x25 (x85 x69 x91)) (x78 (x85 x33 x68)) (x50 (x85 x33 x152)) (x132 (x85 x152 x91)) (x158 (x85 x91 x91)) (x34 (x85 x68 x68)) (x1 (x85 x33 x91)) (x151 (x85 x69 x68)) (x67 (x85 x91 x69)) (x139 (x85 x152 x69)) (x100 (x85 x91 x68)) (x124 (x85 x68 x91)) (x66 (x85 x152 x33)) (x58 (x85 x91 x33)) (x9 (x85 x91 x152)) (x109 (x85 x68 x69)) (x42 (x85 x68 x33)) (x5 (x85 x152 x68)) (x44 (x85 x33 x33)) (x39 (x85 x33 x69)) (x103 (x85 x69 x69))) (or (or (and (and (not (= x91 (x85 x158 x158))) (and (and (not (= (x85 x25 x25) x69)) (not (= (x85 x1 x1) x33))) (not (= (x85 x132 x132) x152)))) (not (= (x85 x124 x124) x68))) (or (and (not (= x68 (x85 x133 x133))) (and (not (= (x85 x9 x9) x91)) (and (not (= (x85 x137 x137) x152)) (and (not (= (x85 x50 x50) x33)) (not (= (x85 x113 x113) x69)))))) (or (and (and (and (not (= (x85 x139 x139) x152)) (and (not (= x69 (x85 x103 x103))) (not (= x33 (x85 x39 x39))))) (not (= (x85 x67 x67) x91))) (not (= (x85 x109 x109) x68))) (and (not (= x68 (x85 x42 x42))) (and (not (= x91 (x85 x58 x58))) (and (and (not (= x69 (x85 x122 x122))) (not (= x33 (x85 x44 x44)))) (not (= x152 (x85 x66 x66))))))))) (and (and (and (not (= x152 (x85 x5 x5))) (and (not (= x33 (x85 x78 x78))) (not (= x69 (x85 x151 x151))))) (not (= (x85 x100 x100) x91))) (not (= (x85 x34 x34) x68))))))
(assert (and (and (not (= x68 x152)) (and (and (and (and (and (not (= x69 x68)) (and (and (not (= x33 x69)) (not (= x152 x69))) (not (= x69 x91)))) (not (= x152 x33))) (not (= x33 x91))) (not (= x68 x33))) (not (= x91 x152)))) (not (= x91 x68))))
(assert (let ((x137 (x85 x152 x152)) (x100 (x85 x91 x68)) (x50 (x85 x33 x152)) (x124 (x85 x68 x91)) (x133 (x85 x68 x152)) (x78 (x85 x33 x68)) (x113 (x85 x69 x152)) (x34 (x85 x68 x68)) (x66 (x85 x152 x33)) (x139 (x85 x152 x69)) (x9 (x85 x91 x152)) (x39 (x85 x33 x69)) (x44 (x85 x33 x33)) (x42 (x85 x68 x33)) (x122 (x85 x69 x33)) (x5 (x85 x152 x68)) (x1 (x85 x33 x91)) (x58 (x85 x91 x33)) (x158 (x85 x91 x91)) (x25 (x85 x69 x91)) (x151 (x85 x69 x68)) (x67 (x85 x91 x69)) (x132 (x85 x152 x91)) (x109 (x85 x68 x69)) (x103 (x85 x69 x69))) (or (and (not (= (x85 x34 x68) x34)) (and (and (and (not (= x151 (x85 x151 x69))) (not (= (x85 x78 x33) x78))) (not (= x5 (x85 x5 x152)))) (not (= (x85 x100 x91) x100)))) (or (and (not (= (x85 x124 x68) x124)) (and (and (not (= (x85 x132 x152) x132)) (and (not (= (x85 x25 x69) x25)) (not (= (x85 x1 x33) x1)))) (not (= (x85 x158 x91) x158)))) (or (and (not (= x133 (x85 x133 x68))) (and (not (= (x85 x9 x91) x9)) (and (and (not (= (x85 x50 x33) x50)) (not (= x113 (x85 x113 x69)))) (not (= x137 (x85 x137 x152)))))) (or (and (not (= x109 (x85 x109 x68))) (and (not (= x67 (x85 x67 x91))) (and (not (= (x85 x139 x152) x139)) (and (not (= (x85 x39 x33) x39)) (not (= (x85 x103 x69) x103)))))) (and (not (= x42 (x85 x42 x68))) (and (not (= x58 (x85 x58 x91))) (and (and (not (= (x85 x122 x69) x122)) (not (= (x85 x44 x33) x44))) (not (= (x85 x66 x152) x66)))))))))))
(assert (let ((x50 (x85 x152 x33)) (x132 (x85 x91 x152)) (x66 (x85 x33 x152)) (x1 (x85 x91 x33)) (x124 (x85 x91 x68)) (x109 (x85 x69 x68)) (x42 (x85 x33 x68)) (x137 (x85 x152 x152)) (x151 (x85 x68 x69)) (x113 (x85 x152 x69)) (x67 (x85 x69 x91)) (x9 (x85 x152 x91)) (x158 (x85 x91 x91)) (x78 (x85 x68 x33)) (x25 (x85 x91 x69)) (x100 (x85 x68 x91)) (x133 (x85 x152 x68)) (x103 (x85 x69 x69)) (x122 (x85 x33 x69)) (x58 (x85 x33 x91)) (x5 (x85 x68 x152)) (x139 (x85 x69 x152)) (x44 (x85 x33 x33)) (x39 (x85 x69 x33)) (x34 (x85 x68 x68))) (and (and (and (and (and (and (and (and (or (or (or (= x103 x152) (or (= x103 x33) (= x103 x69))) (= x91 x103)) (= x103 x68)) (or (= x39 x68) (or (= x91 x39) (or (= x39 x152) (or (= x39 x69) (= x33 x39)))))) (or (or (or (= x139 x152) (or (= x139 x33) (= x69 x139))) (= x91 x139)) (= x68 x139))) (or (or (or (= x152 x67) (or (= x67 x69) (= x67 x33))) (= x67 x91)) (= x67 x68))) (or (= x109 x68) (or (or (= x152 x109) (or (= x33 x109) (= x69 x109))) (= x109 x91)))) (and (or (= x42 x68) (or (= x91 x42) (or (or (= x42 x33) (= x42 x69)) (= x152 x42)))) (and (and (or (or (= x91 x66) (or (= x152 x66) (or (= x66 x33) (= x69 x66)))) (= x68 x66)) (and (or (= x68 x44) (or (= x91 x44) (or (= x152 x44) (or (= x44 x69) (= x44 x33))))) (or (= x122 x68) (or (= x122 x91) (or (= x122 x152) (or (= x122 x69) (= x33 x122))))))) (or (or (= x91 x58) (or (= x152 x58) (or (= x33 x58) (= x69 x58)))) (= x58 x68))))) (and (or (or (or (= x152 x133) (or (= x69 x133) (= x133 x33))) (= x133 x91)) (= x68 x133)) (and (or (= x9 x68) (or (= x91 x9) (or (= x9 x152) (or (= x33 x9) (= x69 x9))))) (and (or (or (= x91 x137) (or (or (= x137 x33) (= x69 x137)) (= x137 x152))) (= x137 x68)) (and (or (or (or (or (= x50 x33) (= x50 x69)) (= x152 x50)) (= x50 x91)) (= x68 x50)) (or (= x68 x113) (or (or (= x113 x152) (or (= x33 x113) (= x113 x69))) (= x91 x113)))))))) (and (and (and (and (or (or (= x91 x1) (or (= x152 x1) (or (= x1 x69) (= x33 x1)))) (= x1 x68)) (or (or (= x91 x25) (or (= x25 x152) (or (= x25 x69) (= x25 x33)))) (= x68 x25))) (or (= x132 x68) (or (= x132 x91) (or (or (= x132 x33) (= x69 x132)) (= x152 x132))))) (or (= x158 x68) (or (or (or (= x158 x33) (= x158 x69)) (= x152 x158)) (= x158 x91)))) (or (= x124 x68) (or (or (= x152 x124) (or (= x124 x69) (= x33 x124))) (= x91 x124))))) (and (and (and (or (or (or (= x152 x5) (or (= x33 x5) (= x69 x5))) (= x91 x5)) (= x68 x5)) (and (or (or (= x91 x151) (or (= x151 x152) (or (= x151 x69) (= x151 x33)))) (= x68 x151)) (or (or (= x91 x78) (or (or (= x78 x69) (= x33 x78)) (= x152 x78))) (= x68 x78)))) (or (= x100 x68) (or (= x91 x100) (or (= x100 x152) (or (= x33 x100) (= x69 x100)))))) (or (= x34 x68) (or (or (or (= x33 x34) (= x34 x69)) (= x34 x152)) (= x91 x34)))))))
(assert (let ((x139 (x85 x152 x152)) (x67 (x85 x91 x91)) (x103 (x85 x69 x69)) (x39 (x85 x33 x33)) (x109 (x85 x68 x68))) (and (or (or (or (= x152 (x85 x139 x152)) (or (= (x85 x39 x33) x33) (= x69 (x85 x103 x69)))) (= x91 (x85 x67 x91))) (= x68 (x85 x109 x68))) (and (or (= x68 (x85 x68 x109)) (or (or (= x68 (x85 x152 (x85 x68 x152))) (or (= x68 (x85 x33 (x85 x68 x33))) (= (x85 x69 (x85 x68 x69)) x68))) (= (x85 x91 (x85 x68 x91)) x68))) (and (and (and (or (or (or (= (x85 x152 (x85 x33 x152)) x33) (or (= x33 (x85 x33 x39)) (= x33 (x85 x69 (x85 x33 x69))))) (= x33 (x85 x91 (x85 x33 x91)))) (= (x85 x68 (x85 x33 x68)) x33)) (or (or (= x69 (x85 x91 (x85 x69 x91))) (or (= (x85 x152 (x85 x69 x152)) x69) (or (= (x85 x33 (x85 x69 x33)) x69) (= x69 (x85 x69 x103))))) (= x69 (x85 x68 (x85 x69 x68))))) (or (or (= x152 (x85 x91 (x85 x152 x91))) (or (= (x85 x152 x139) x152) (or (= x152 (x85 x69 (x85 x152 x69))) (= (x85 x33 (x85 x152 x33)) x152)))) (= (x85 x68 (x85 x152 x68)) x152))) (or (= (x85 x68 (x85 x91 x68)) x91) (or (or (= x91 (x85 x152 (x85 x91 x152))) (or (= x91 (x85 x33 (x85 x91 x33))) (= x91 (x85 x69 (x85 x91 x69))))) (= x91 (x85 x91 x67)))))))))
(assert (and (and (and (= (x85 x69 x68) x152) (= (x85 x69 x69) x33)) (= (x85 x33 x69) x91)) (= x68 (x85 x69 x91))))
(assert (let ((x58 (x85 x33 x91)) (x122 (x85 x33 x69)) (x9 (x85 x152 x91)) (x139 (x85 x69 x152)) (x34 (x85 x68 x68)) (x109 (x85 x69 x68)) (x50 (x85 x152 x33)) (x158 (x85 x91 x91)) (x66 (x85 x33 x152)) (x103 (x85 x69 x69)) (x1 (x85 x91 x33)) (x124 (x85 x91 x68)) (x137 (x85 x152 x152)) (x78 (x85 x68 x33)) (x25 (x85 x91 x69)) (x113 (x85 x152 x69)) (x151 (x85 x68 x69)) (x39 (x85 x69 x33)) (x133 (x85 x152 x68)) (x100 (x85 x68 x91)) (x44 (x85 x33 x33)) (x67 (x85 x69 x91)) (x42 (x85 x33 x68)) (x132 (x85 x91 x152)) (x5 (x85 x68 x152))) (let ((x127 (not (= (x85 x44 x44) x33))) (x116 (not (= (x85 x137 x137) x152))) (x30 (not (= (x85 x103 x103) x69))) (x104 (not (= x68 (x85 x34 x34)))) (x10 (not (= x91 (x85 x158 x158))))) (and (or (and (and (and (and (not (= x69 (x85 x151 x151))) (not (= (x85 x78 x78) x33))) (not (= x152 (x85 x5 x5)))) (not (= (x85 x100 x100) x91))) x104) (or (or (and (not (= (x85 x133 x133) x68)) (and (and x116 (and (not (= (x85 x50 x50) x33)) (not (= x69 (x85 x113 x113))))) (not (= x91 (x85 x9 x9))))) (or (and (not (= x68 (x85 x109 x109))) (and (not (= (x85 x67 x67) x91)) (and (and (not (= x33 (x85 x39 x39))) x30) (not (= (x85 x139 x139) x152))))) (and (not (= (x85 x42 x42) x68)) (and (not (= x91 (x85 x58 x58))) (and (and (not (= x69 (x85 x122 x122))) x127) (not (= x152 (x85 x66 x66)))))))) (and (not (= (x85 x124 x124) x68)) (and x10 (and (and (not (= x33 (x85 x1 x1))) (not (= (x85 x25 x25) x69))) (not (= (x85 x132 x132) x152))))))) (and x104 (and x10 (and x116 (and x127 x30))))))))
(check-sat)
(exit)
